
  32    1
  10

   0   0   6 2 3 5 6 7 12 
   4   1   3 9 8 4 
   8   3   2 14 8 
   1   2   4 18 14 13 11 
   4   3   4 18 14 13 11 
   6   1   2 17 8 
   2   3   2 11 10 
   4   2   3 18 13 11 
   3   1   3 18 17 11 
  10   2   4 20 18 17 16 
   2   3   3 20 16 15 
   9   1   3 27 20 16 
   3   4   4 27 22 20 19 
   3   3   2 22 17 
  10   1   3 27 22 19 
   7   2   2 22 19 
   2   2   2 27 19 
   5   1   2 27 22 
   4   2   1 21 
   3   1   1 21 
   7   2   2 26 23 
   3   2   2 26 23 
   1   2   2 25 24 
   3   1   3 30 29 28 
   8   1   3 31 30 29 
   3   3   2 30 29 
   7   2   2 30 29 
   8   2   1 31 
   7   4   1 32
   1   1   1 32
   4   2   1 32
   0   0   0 
